(set-logic QF_LRA)
(declare-fun X0 () Real )
(declare-fun Y0 () Real )
(declare-fun X1 () Real )
(declare-fun Y1 () Real )
(declare-fun X2 () Real )
(declare-fun Y2 () Real )
(declare-fun X3 () Real )
(declare-fun Y3 () Real )
(declare-fun X4 () Real )
(declare-fun Y4 () Real )
(declare-fun X5 () Real )
(declare-fun Y5 () Real )
(declare-fun Z () Real )
(declare-fun k () Real )
(assert (let
(( $goal (>= Z k) ))
(let
((
$phi ( and 
( or ( <= ( + X0 36 ) X1 )  ( <= ( + X1 44 ) X0 )  ( <= ( + Y0 1 ) Y1 )  ( <= ( + Y1 47 ) Y0 )  )
( or ( <= ( + X0 36 ) X2 )  ( <= ( + X2 70 ) X0 )  ( <= ( + Y0 1 ) Y2 )  ( <= ( + Y2 89 ) Y0 )  )
( or ( <= ( + X0 36 ) X3 )  ( <= ( + X3 100 ) X0 )  ( <= ( + Y0 1 ) Y3 )  ( <= ( + Y3 6 ) Y0 )  )
( or ( <= ( + X0 36 ) X4 )  ( <= ( + X4 16 ) X0 )  ( <= ( + Y0 1 ) Y4 )  ( <= ( + Y4 89 ) Y0 )  )
( or ( <= ( + X0 36 ) X5 )  ( <= ( + X5 99 ) X0 )  ( <= ( + Y0 1 ) Y5 )  ( <= ( + Y5 79 ) Y0 )  )
( or ( <= ( + X1 44 ) X2 )  ( <= ( + X2 70 ) X1 )  ( <= ( + Y1 47 ) Y2 )  ( <= ( + Y2 89 ) Y1 )  )
( or ( <= ( + X1 44 ) X3 )  ( <= ( + X3 100 ) X1 )  ( <= ( + Y1 47 ) Y3 )  ( <= ( + Y3 6 ) Y1 )  )
( or ( <= ( + X1 44 ) X4 )  ( <= ( + X4 16 ) X1 )  ( <= ( + Y1 47 ) Y4 )  ( <= ( + Y4 89 ) Y1 )  )
( or ( <= ( + X1 44 ) X5 )  ( <= ( + X5 99 ) X1 )  ( <= ( + Y1 47 ) Y5 )  ( <= ( + Y5 79 ) Y1 )  )
( or ( <= ( + X2 70 ) X3 )  ( <= ( + X3 100 ) X2 )  ( <= ( + Y2 89 ) Y3 )  ( <= ( + Y3 6 ) Y2 )  )
( or ( <= ( + X2 70 ) X4 )  ( <= ( + X4 16 ) X2 )  ( <= ( + Y2 89 ) Y4 )  ( <= ( + Y4 89 ) Y2 )  )
( or ( <= ( + X2 70 ) X5 )  ( <= ( + X5 99 ) X2 )  ( <= ( + Y2 89 ) Y5 )  ( <= ( + Y5 79 ) Y2 )  )
( or ( <= ( + X3 100 ) X4 )  ( <= ( + X4 16 ) X3 )  ( <= ( + Y3 6 ) Y4 )  ( <= ( + Y4 89 ) Y3 )  )
( or ( <= ( + X3 100 ) X5 )  ( <= ( + X5 99 ) X3 )  ( <= ( + Y3 6 ) Y5 )  ( <= ( + Y5 79 ) Y3 )  )
( or ( <= ( + X4 16 ) X5 )  ( <= ( + X5 99 ) X4 )  ( <= ( + Y4 89 ) Y5 )  ( <= ( + Y5 79 ) Y4 )  )
( >= X0 0)
( <= ( + X0 36) Z)
( >= Y0 0)
( <= ( + Y0 1 ) 100)
( >= X1 0)
( <= ( + X1 44) Z)
( >= Y1 0)
( <= ( + Y1 47 ) 100)
( >= X2 0)
( <= ( + X2 70) Z)
( >= Y2 0)
( <= ( + Y2 89 ) 100)
( >= X3 0)
( <= ( + X3 100) Z)
( >= Y3 0)
( <= ( + Y3 6 ) 100)
( >= X4 0)
( <= ( + X4 16) Z)
( >= Y4 0)
( <= ( + Y4 89 ) 100)
( >= X5 0)
( <= ( + X5 99) Z)
( >= Y5 0)
( <= ( + Y5 79 ) 100)
) )
)(=> $phi $goal))))